
Gurobi 6.5.2 (win64) logging started 07/24/16 17:44:49


Gurobi 6.5.2 (win64) logging started 07/24/16 17:44:49

Optimize a model with 3695 rows, 823 columns and 9316 nonzeros
Coefficient statistics:
  Matrix range    [6e-08, 1e+03]
  Objective range [1e+00, 1e+00]
  Bounds range    [1e+00, 1e+00]
  RHS range       [6e-06, 3e+03]
Presolve removed 3442 rows and 563 columns
Presolve time: 0.00s
Presolved: 253 rows, 260 columns, 1077 nonzeros
Variable types: 260 continuous, 0 integer (0 binary)

Root relaxation: objective 2.006804e+01, 262 iterations, 0.00 seconds

    Nodes    |    Current Node    |     Objective Bounds      |     Work
 Expl Unexpl |  Obj  Depth IntInf | Incumbent    BestBd   Gap | It/Node Time

*    0     0               0      20.0680376   20.06804  0.00%     -    0s

Explored 0 nodes (262 simplex iterations) in 0.02 seconds
Thread count was 8 (of 8 available processors)

Optimal solution found (tolerance 1.00e-04)
Best objective 2.006803764587e+01, best bound 2.006803764587e+01, gap 0.0%

Wrote requested result file 'H1\instance25\\Results25EC_Sol4.lp'

